1 1074
2 992
3 953
15 909
28 895
46 877
63 866
314 840



1 1009
2 976
3 971
5 932
12 905
63 897
84 886
87 873
141 867
215 866
840 853



1 1044
2 981
3 974
10 959
14 924
16 911
73 901
76 854
815 842



1 1011
2 994
4 952
15 920
28 917
35 916
45 888
73 885
75 880
273 875
312 850



1 1062
2 974
3 950
6 940
9 895
84 883
246 879
259 878
311 877
407 868
788 860



